Solver command line: []

Read LP format model from file C:\Users\wlhlm\AppData\Local\Temp\tmp3bht5czs.pyomo.lp
Reading time = 0.04 seconds
objective: 17977 rows, 16631 columns, 41138 nonzeros
Set parameter TimeLimit to value 5000
Set parameter MIPGap to value 0.08
Gurobi Optimizer version 12.0.1 build v12.0.1rc0 (win64 - Windows 11.0 (26100.2))

CPU model: Intel(R) Core(TM) Ultra 7 258V, instruction set [SSE2|AVX|AVX2]
Thread count: 8 physical cores, 8 logical processors, using up to 8 threads

Non-default parameters:
TimeLimit  5000
MIPGap  0.08

Optimize a model with 17977 rows, 16631 columns and 41138 nonzeros
Model fingerprint: 0xac799302
Model has 167 quadratic constraints
Variable types: 14280 continuous, 2351 integer (2016 binary)
Coefficient statistics:
  Matrix range     [7e-03, 1e+03]
  QMatrix range    [1e+00, 1e+00]
  Objective range  [4e+01, 3e+02]
  Bounds range     [1e+00, 3e+00]
  RHS range        [2e-03, 1e+04]
Presolve removed 15390 rows and 13552 columns
Presolve time: 0.05s
Presolved: 2587 rows, 3079 columns, 8809 nonzeros
Variable types: 2411 continuous, 668 integer (668 binary)
Found heuristic solution: objective 2775362.4268

Root relaxation: objective 2.441166e+06, 1284 iterations, 0.01 seconds (0.02 work units)

    Nodes    |    Current Node    |     Objective Bounds      |     Work
 Expl Unexpl |  Obj  Depth IntInf | Incumbent    BestBd   Gap | It/Node Time

     0     0 2441165.81    0   16 2775362.43 2441165.81  12.0%     -    0s
     0     0 2441297.93    0   17 2775362.43 2441297.93  12.0%     -    0s
H    0     0                    2443099.2184 2441297.93  0.07%     -    0s
     0     0 2441297.93    0   22 2443099.22 2441297.93  0.07%     -    0s

Cutting planes:
  Learned: 1
  Gomory: 8
  Cover: 1
  Implied bound: 10
  MIR: 10
  Flow cover: 12

Explored 1 nodes (1342 simplex iterations) in 0.12 seconds (0.13 work units)
Thread count was 8 (of 8 available processors)

Solution count 2: 2.4431e+06 2.77536e+06 

Optimal solution found (tolerance 8.00e-02)
Best objective 2.443099218403e+06, best bound 2.441297929044e+06, gap 0.0737%

